(set-logic BV) (define-fun origCir ((n209 Bool) (n230 Bool) (n193 Bool) (n152 Bool) (n117 Bool)) Bool (and (and n230 n209) (and n193 (and n152 n117)))) (synth-fun skel ((n209 Bool) (n230 Bool) (n193 Bool) (n152 Bool) (n117 Bool)) Bool) (declare-var n209 Bool) (declare-var n230 Bool) (declare-var n193 Bool) (declare-var n152 Bool) (declare-var n117 Bool) (constraint (= (origCir n209 n230 n193 n152 n117) (skel n209 n230 n193 n152 n117))) (check-synth)
